Route #1: 2 
Route #2: 6 
Route #3: 8 
Route #4: 15 12 10 
Route #5: 14 5 
Route #6: 13 9 7 
Route #7: 11 4 
Route #8: 3 1 
Cost 450



0 15 12 10 0    V
0 5 9 3 0
0 7 14 0
0 2 0           V
0 6 0           V
0 13 8 0
0 1 0
0 11 4 0        V


floor

0 11 4 0        S
0 7 14 0        S
0 6 0           S
0 2 0           S
0 10 12 15 0    S
0 5 9 3 0       S 
0 13 8 0        S
0 1 0           S
